WARNING: for repeatability, setting FPU to use double precision
============================[ Problem Statistics ]=============================
|                                                                             |
|  Number of variables:           285                                         |
|  Number of clauses:            1164                                         |
|  Parse time:                   0.00 s                                       |
|                                                                             |
============================[ Search Statistics ]==============================
| Conflicts |          ORIGINAL         |          LEARNT          | Progress |
|           |    Vars  Clauses Literals |    Limit  Clauses Lit/Cl |          |
===============================================================================
|       100 |     285     1164     3370 |      426      100      6 |  0.009 % |
===============================================================================
restarts              : 2
conflicts             : 148            (inf /sec)
decisions             : 196            (0.00 % random) (inf /sec)
propagations          : 7636           (inf /sec)
conflict literals     : 902            (32.33 % deleted)
Memory used           : 19.00 MB
CPU time              : 0 s

UNSATISFIABLE
